(set-logic QF_LIA)
(declare-fun a () Int)
(declare-fun b () Int)
(declare-fun c () Int)
(assert (let ((.def_0 (<= 4 a))) (let ((.def_1 (not .def_0))) (let ((.def_2 (<= b c))) (let ((.def_3 (or .def_2 .def_1))) (let ((.def_4 (= c 1))) (let ((.def_5 (not .def_4))) (let ((.def_6 (or .def_5 .def_3))) (let ((.def_7 (+ b a))) (let ((.def_8 (<= .def_7 4))) (let ((.def_9 (not .def_8))) (let ((.def_10 (or .def_9 .def_6))) (let ((.def_11 (<= c b))) (let ((.def_12 (not .def_11))) (let ((.def_13 (or .def_1 .def_12))) (let ((.def_14 (or .def_13 .def_5))) (let ((.def_15 (or .def_9 .def_14))) (let ((.def_16 (not .def_2))) (let ((.def_17 (<= 4 b))) (let ((.def_18 (not .def_17))) (let ((.def_19 (or .def_18 .def_16))) (let ((.def_20 (<= c 3))) (let ((.def_21 (not .def_20))) (let ((.def_22 (or .def_21 .def_19))) (let ((.def_23 (or .def_11 .def_18))) (let ((.def_24 (or .def_23 .def_21))) (let ((.def_25 (<= b 2))) (let ((.def_26 (not .def_25))) (let ((.def_27 (or .def_18 .def_26))) (let ((.def_28 (<= a 2))) (let ((.def_29 (not .def_28))) (let ((.def_30 (or .def_1 .def_29))) (let ((.def_31 (= .def_7 6))) (let ((.def_32 (not .def_31))) (let ((.def_33 (or .def_32 .def_9))) (let ((.def_34 (or .def_16 .def_12))) (let ((.def_35 (= c b))) (let ((.def_36 (or .def_35 .def_34))) (let ((.def_37 (or .def_12 .def_16))) (let ((.def_38 (= b c))) (let ((.def_39 (or .def_38 .def_37))) (let ((.def_40 (<= .def_7 6))) (let ((.def_41 (not .def_40))) (let ((.def_42 (<= 6 .def_7))) (let ((.def_43 (not .def_42))) (let ((.def_44 (or .def_31 .def_43))) (let ((.def_45 (or .def_44 .def_41))) (let ((.def_46 (<= 1 c))) (let ((.def_47 (not .def_46))) (let ((.def_48 (<= c 1))) (let ((.def_49 (not .def_48))) (let ((.def_50 (or .def_4 .def_49))) (let ((.def_51 (or .def_50 .def_47))) (let ((.def_52 (or .def_32 .def_40))) (let ((.def_53 (or .def_32 .def_42))) (let ((.def_54 (or .def_2 .def_11))) (let ((.def_55 (or .def_2 .def_48))) (let ((.def_56 (or .def_26 .def_55))) (let ((.def_57 (or .def_5 .def_48))) (let ((.def_58 (or .def_5 .def_46))) (let ((.def_59 (or .def_41 .def_43))) (let ((.def_60 (or .def_31 .def_59))) (let ((.def_61 (or .def_4 .def_47))) (let ((.def_62 (or .def_61 .def_49))) (let ((.def_63 (or .def_9 .def_40))) (let ((.def_64 (or .def_9 .def_43))) (let ((.def_65 (or .def_38 .def_12))) (let ((.def_66 (or .def_16 .def_65))) (let ((.def_67 (or .def_48 .def_46))) (let ((.def_68 (and .def_36 .def_33 .def_30 .def_27 .def_24 .def_22 .def_15 .def_10 .def_58 .def_57 .def_67 .def_53 .def_52 .def_51 .def_45 .def_39 .def_36 .def_33 .def_30 .def_27 .def_24 .def_22 .def_15 .def_10 .def_58 .def_57 .def_64 .def_63 .def_62 .def_60 .def_66 .def_36 .def_33 .def_30 .def_27 .def_24 .def_22 .def_15 .def_10 .def_58 .def_57 .def_64 .def_63 .def_62 .def_60 .def_39 .def_36 .def_33 .def_30 .def_27 .def_24 .def_22 .def_15 .def_10 .def_58 .def_57 .def_56 .def_54 .def_53 .def_52 .def_51 .def_45 .def_39 .def_36 .def_33 .def_30 .def_27 .def_24 .def_22 .def_15 .def_10))) .def_68))))))))))))))))))))))))))))))))))))))))))))))))))))))))))))))))))))))
(check-sat)
